120
150
55
49
50
46
58
49
53
56
52
55
60
41
42
50
55
48
58
46
58
48
48
52
54
56
54
45
44
54
40
42
60
60
50
56
53
49
41
58
48
58
50
46
44
60
57
47
43
50
51
49
48
47
55
51
58
56
50
46
41
49
40
58
54
46
51
56
43
59
44
50
43
46
50
56
55
50
52
55
44
54
45
55
45
60
60
47
59
49
49
60
60
54
52
44
56
48
56
49
46
49
52
60
58
50
58
55
41
51
45
42
43
40
54
58
52
60
44
51
40
60
